\ENCODING=ISO-8859-1
\Problem name: nSARP

Maximize
 obj1: 10.3262 x(9,9,0) + 4.1162 x(9,10,0) - 2.9218 x(9,11,0)
       + 5.4042 x(9,12,0) + 0.1418 x(9,13,0) + 2.6534 x(9,14,0)
       + 6.1218 x(9,15,0) + 4.9902 x(9,16,0) - 2.6734 x(9,17,0)
       + 0.491400000000001 x(9,18,0) - 0.456200000000001 x(9,19,0)
       + 5.5882 x(9,20,0) + 8.0172 x(10,9,0) + 14.2272 x(10,10,0)
       + 3.7668 x(10,11,0) + 7.5204 x(10,12,0) + 0.592799999999999 x(10,13,0)
       + 10.9152 x(10,14,0) + 5.984 x(10,15,0) + 7.8608 x(10,16,0)
       + 5.4412 x(10,17,0) + 3.4264 x(10,18,0) + 2.35 x(10,19,0)
       + 7.7136 x(10,20,0) - 3.3534 x(11,9,0) - 0.565799999999999 x(11,10,0)
       + 9.8946 x(11,11,0) - 4.5034 x(11,12,0) - 8.6526 x(11,13,0)
       + 2.1114 x(11,14,0) - 3.5558 x(11,15,0) - 3.9238 x(11,16,0)
       + 5.9294 x(11,17,0) - 4.6322 x(11,18,0) - 6.2146 x(11,19,0)
       - 4.3102 x(11,20,0) + 10.4838 x(12,9,0) + 8.699 x(12,10,0)
       + 1.0078 x(12,11,0) + 15.4058 x(12,12,0) + 6.3346 x(12,13,0)
       + 7.6594 x(12,14,0) + 9.5546 x(12,15,0) + 13.9798 x(12,16,0)
       + 2.5626 x(12,17,0) + 8.3862 x(12,18,0) + 8.3034 x(12,19,0)
       + 12.839 x(12,20,0) - 0.6716 x(13,9,0) - 4.1216 x(13,10,0)
       - 9.0344 x(13,11,0) + 0.441600000000001 x(13,12,0) + 9.5128 x(13,13,0)
       - 3.2476 x(13,14,0) + 1.1316 x(13,15,0) - 0.2944 x(13,16,0)
       - 7.4796 x(13,17,0) + 0.9292 x(13,18,0) + 5.7592 x(13,19,0)
       + 1.2236 x(13,20,0) + 9.31 x(14,9,0) + 13.6708 x(14,10,0)
       + 9.1996 x(14,11,0) + 9.2364 x(14,12,0) + 4.2224 x(14,13,0)
       + 16.9828 x(14,14,0) + 6.5868 x(14,15,0) + 10.3128 x(14,16,0)
       + 10.7544 x(14,17,0) + 9.0248 x(14,18,0) + 5.8048 x(14,19,0)
       + 9.0892 x(14,20,0) - 4.2044 x(15,9,0) - 8.2432 x(15,10,0)
       - 13.4504 x(15,11,0) - 5.8512 x(15,12,0) - 8.3812 x(15,13,0)
       - 10.396 x(15,14,0) - 6.716 x(15,16,0) - 15.1432 x(15,17,0)
       - 7.9672 x(15,18,0) - 8.9148 x(15,19,0) - 5.5476 x(15,20,0)
       - 5.336 x(16,9,0) - 6.3664 x(16,10,0) - 13.8184 x(16,11,0)
       - 1.426 x(16,12,0) - 9.8072 x(16,13,0) - 6.67 x(16,14,0)
       - 6.716 x(16,15,0) - 12.1348 x(16,17,0) - 7.774 x(16,18,0)
       - 8.0776 x(16,19,0) - 3.0268 x(16,20,0) - 12.9996 x(17,9,0)
       - 8.786 x(17,10,0) - 3.9652 x(17,11,0) - 12.8432 x(17,12,0)
       - 16.9924 x(17,13,0) - 6.2284 x(17,14,0) - 15.1432 x(17,15,0)
       - 12.1348 x(17,16,0) - 12.972 x(17,18,0) - 14.5544 x(17,19,0)
       - 12.65 x(17,20,0) - 9.8348 x(18,9,0) - 10.8008 x(18,10,0)
       - 14.5268 x(18,11,0) - 7.0196 x(18,12,0) - 8.5836 x(18,13,0)
       - 7.958 x(18,14,0) - 7.9672 x(18,15,0) - 7.774 x(18,16,0)
       - 12.972 x(18,17,0) - 6.1456 x(18,19,0) - 4.6092 x(18,20,0)
       - 10.7824 x(19,9,0) - 11.8772 x(19,10,0) - 16.1092 x(19,11,0)
       - 7.1024 x(19,12,0) - 3.7536 x(19,13,0) - 11.178 x(19,14,0)
       - 8.9148 x(19,15,0) - 8.0776 x(19,16,0) - 14.5544 x(19,17,0)
       - 6.1456 x(19,18,0) - 7.13 x(19,20,0) - 4.738 x(20,9,0)
       - 6.5136 x(20,10,0) - 14.2048 x(20,11,0) - 2.5668 x(20,12,0)
       - 8.2892 x(20,13,0) - 7.8936 x(20,14,0) - 5.5476 x(20,15,0)
       - 3.0268 x(20,16,0) - 12.65 x(20,17,0) - 4.6092 x(20,18,0)
       - 7.13 x(20,19,0) - 9.5128 x(21,9,0) - 10.0372 x(21,10,0)
       - 15.2812 x(21,11,0) - 6.1088 x(21,12,0) - 5.6304 x(21,13,0)
       - 8.7308 x(21,14,0) + 0 y(21) + 0 y(22)
Subject To
 Constraint1_0:      = 0
 Constraint1_1:      = 0
 Constraint1_2:      = 0
 Constraint1_3:      = 0
 Constraint1_4:      = 0
 Constraint1_5:      = 0
 Constraint1_6:      = 0
 Constraint1_7:      = 0
 Constraint1_8:      = 0
 Constraint2_9:     x(9,9,0) + x(9,10,0) + x(9,11,0) + x(9,12,0) + x(9,13,0)
                    + x(9,14,0) + x(9,15,0) + x(9,16,0) + x(9,17,0) + x(9,18,0)
                    + x(9,19,0) + x(9,20,0) - y(9)  = 0
 Constraint2_10:    x(10,9,0) + x(10,10,0) + x(10,11,0) + x(10,12,0)
                    + x(10,13,0) + x(10,14,0) + x(10,15,0) + x(10,16,0)
                    + x(10,17,0) + x(10,18,0) + x(10,19,0) + x(10,20,0) - y(10)
                     = 0
 Constraint2_11:    x(11,9,0) + x(11,10,0) + x(11,11,0) + x(11,12,0)
                    + x(11,13,0) + x(11,14,0) + x(11,15,0) + x(11,16,0)
                    + x(11,17,0) + x(11,18,0) + x(11,19,0) + x(11,20,0) - y(11)
                     = 0
 Constraint2_12:    x(12,9,0) + x(12,10,0) + x(12,11,0) + x(12,12,0)
                    + x(12,13,0) + x(12,14,0) + x(12,15,0) + x(12,16,0)
                    + x(12,17,0) + x(12,18,0) + x(12,19,0) + x(12,20,0) - y(12)
                     = 0
 Constraint2_13:    x(13,9,0) + x(13,10,0) + x(13,11,0) + x(13,12,0)
                    + x(13,13,0) + x(13,14,0) + x(13,15,0) + x(13,16,0)
                    + x(13,17,0) + x(13,18,0) + x(13,19,0) + x(13,20,0) - y(13)
                     = 0
 Constraint2_14:    x(14,9,0) + x(14,10,0) + x(14,11,0) + x(14,12,0)
                    + x(14,13,0) + x(14,14,0) + x(14,15,0) + x(14,16,0)
                    + x(14,17,0) + x(14,18,0) + x(14,19,0) + x(14,20,0) - y(14)
                     = 0
 Constraint3_9_0:   x(9,9,0) + x(9,10,0) + x(9,11,0) + x(9,12,0) + x(9,13,0)
                    + x(9,14,0) + x(9,15,0) + x(9,16,0) + x(9,17,0) + x(9,18,0)
                    + x(9,19,0) + x(9,20,0) - x(15,9,0) - x(15,10,0)
                    - x(15,11,0) - x(15,12,0) - x(15,13,0) - x(15,14,0)
                    - x(15,15,0) - x(15,16,0) - x(15,17,0) - x(15,18,0)
                    - x(15,19,0) - x(15,20,0) - x(15,22,0)  = 0
 Constraint3_10_0:  x(10,9,0) + x(10,10,0) + x(10,11,0) + x(10,12,0)
                    + x(10,13,0) + x(10,14,0) + x(10,15,0) + x(10,16,0)
                    + x(10,17,0) + x(10,18,0) + x(10,19,0) + x(10,20,0)
                    - x(16,9,0) - x(16,10,0) - x(16,11,0) - x(16,12,0)
                    - x(16,13,0) - x(16,14,0) - x(16,15,0) - x(16,16,0)
                    - x(16,17,0) - x(16,18,0) - x(16,19,0) - x(16,20,0)
                    - x(16,22,0)  = 0
 Constraint3_11_0:  x(11,9,0) + x(11,10,0) + x(11,11,0) + x(11,12,0)
                    + x(11,13,0) + x(11,14,0) + x(11,15,0) + x(11,16,0)
                    + x(11,17,0) + x(11,18,0) + x(11,19,0) + x(11,20,0)
                    - x(17,9,0) - x(17,10,0) - x(17,11,0) - x(17,12,0)
                    - x(17,13,0) - x(17,14,0) - x(17,15,0) - x(17,16,0)
                    - x(17,17,0) - x(17,18,0) - x(17,19,0) - x(17,20,0)
                    - x(17,22,0)  = 0
 Constraint3_12_0:  x(12,9,0) + x(12,10,0) + x(12,11,0) + x(12,12,0)
                    + x(12,13,0) + x(12,14,0) + x(12,15,0) + x(12,16,0)
                    + x(12,17,0) + x(12,18,0) + x(12,19,0) + x(12,20,0)
                    - x(18,9,0) - x(18,10,0) - x(18,11,0) - x(18,12,0)
                    - x(18,13,0) - x(18,14,0) - x(18,15,0) - x(18,16,0)
                    - x(18,17,0) - x(18,18,0) - x(18,19,0) - x(18,20,0)
                    - x(18,22,0)  = 0
 Constraint3_13_0:  x(13,9,0) + x(13,10,0) + x(13,11,0) + x(13,12,0)
                    + x(13,13,0) + x(13,14,0) + x(13,15,0) + x(13,16,0)
                    + x(13,17,0) + x(13,18,0) + x(13,19,0) + x(13,20,0)
                    - x(19,9,0) - x(19,10,0) - x(19,11,0) - x(19,12,0)
                    - x(19,13,0) - x(19,14,0) - x(19,15,0) - x(19,16,0)
                    - x(19,17,0) - x(19,18,0) - x(19,19,0) - x(19,20,0)
                    - x(19,22,0)  = 0
 Constraint3_14_0:  x(14,9,0) + x(14,10,0) + x(14,11,0) + x(14,12,0)
                    + x(14,13,0) + x(14,14,0) + x(14,15,0) + x(14,16,0)
                    + x(14,17,0) + x(14,18,0) + x(14,19,0) + x(14,20,0)
                    - x(20,9,0) - x(20,10,0) - x(20,11,0) - x(20,12,0)
                    - x(20,13,0) - x(20,14,0) - x(20,15,0) - x(20,16,0)
                    - x(20,17,0) - x(20,18,0) - x(20,19,0) - x(20,20,0)
                    - x(20,22,0)  = 0
 Constraint4_0_0:    = 0
 Constraint4_1_0:    = 0
 Constraint4_2_0:    = 0
 Constraint4_3_0:    = 0
 Constraint4_4_0:    = 0
 Constraint4_5_0:    = 0
 Constraint4_6_0:    = 0
 Constraint4_7_0:    = 0
 Constraint4_8_0:    = 0
 Constraint4_9_0:   x(9,10,0) + x(9,11,0) + x(9,12,0) + x(9,13,0) + x(9,14,0)
                    + x(9,15,0) + x(9,16,0) + x(9,17,0) + x(9,18,0) + x(9,19,0)
                    + x(9,20,0) - x(10,9,0) - x(11,9,0) - x(12,9,0) - x(13,9,0)
                    - x(14,9,0) - x(15,9,0) - x(16,9,0) - x(17,9,0) - x(18,9,0)
                    - x(19,9,0) - x(20,9,0) - x(21,9,0)  = 0
 Constraint4_10_0:  - x(9,10,0) + x(10,9,0) + x(10,11,0) + x(10,12,0)
                    + x(10,13,0) + x(10,14,0) + x(10,15,0) + x(10,16,0)
                    + x(10,17,0) + x(10,18,0) + x(10,19,0) + x(10,20,0)
                    - x(11,10,0) - x(12,10,0) - x(13,10,0) - x(14,10,0)
                    - x(15,10,0) - x(16,10,0) - x(17,10,0) - x(18,10,0)
                    - x(19,10,0) - x(20,10,0) - x(21,10,0)  = 0
 Constraint4_11_0:  - x(9,11,0) - x(10,11,0) + x(11,9,0) + x(11,10,0)
                    + x(11,12,0) + x(11,13,0) + x(11,14,0) + x(11,15,0)
                    + x(11,16,0) + x(11,17,0) + x(11,18,0) + x(11,19,0)
                    + x(11,20,0) - x(12,11,0) - x(13,11,0) - x(14,11,0)
                    - x(15,11,0) - x(16,11,0) - x(17,11,0) - x(18,11,0)
                    - x(19,11,0) - x(20,11,0) - x(21,11,0)  = 0
 Constraint4_12_0:  - x(9,12,0) - x(10,12,0) - x(11,12,0) + x(12,9,0)
                    + x(12,10,0) + x(12,11,0) + x(12,13,0) + x(12,14,0)
                    + x(12,15,0) + x(12,16,0) + x(12,17,0) + x(12,18,0)
                    + x(12,19,0) + x(12,20,0) - x(13,12,0) - x(14,12,0)
                    - x(15,12,0) - x(16,12,0) - x(17,12,0) - x(18,12,0)
                    - x(19,12,0) - x(20,12,0) - x(21,12,0)  = 0
 Constraint4_13_0:  - x(9,13,0) - x(10,13,0) - x(11,13,0) - x(12,13,0)
                    + x(13,9,0) + x(13,10,0) + x(13,11,0) + x(13,12,0)
                    + x(13,14,0) + x(13,15,0) + x(13,16,0) + x(13,17,0)
                    + x(13,18,0) + x(13,19,0) + x(13,20,0) - x(14,13,0)
                    - x(15,13,0) - x(16,13,0) - x(17,13,0) - x(18,13,0)
                    - x(19,13,0) - x(20,13,0) - x(21,13,0)  = 0
 Constraint4_14_0:  - x(9,14,0) - x(10,14,0) - x(11,14,0) - x(12,14,0)
                    - x(13,14,0) + x(14,9,0) + x(14,10,0) + x(14,11,0)
                    + x(14,12,0) + x(14,13,0) + x(14,15,0) + x(14,16,0)
                    + x(14,17,0) + x(14,18,0) + x(14,19,0) + x(14,20,0)
                    - x(15,14,0) - x(16,14,0) - x(17,14,0) - x(18,14,0)
                    - x(19,14,0) - x(20,14,0) - x(21,14,0)  = 0
 Constraint4_15_0:  - x(9,15,0) - x(10,15,0) - x(11,15,0) - x(12,15,0)
                    - x(13,15,0) - x(14,15,0) + x(15,9,0) + x(15,10,0)
                    + x(15,11,0) + x(15,12,0) + x(15,13,0) + x(15,14,0)
                    + x(15,16,0) + x(15,17,0) + x(15,18,0) + x(15,19,0)
                    + x(15,20,0) + x(15,22,0) - x(16,15,0) - x(17,15,0)
                    - x(18,15,0) - x(19,15,0) - x(20,15,0)  = 0
 Constraint4_16_0:  - x(9,16,0) - x(10,16,0) - x(11,16,0) - x(12,16,0)
                    - x(13,16,0) - x(14,16,0) - x(15,16,0) + x(16,9,0)
                    + x(16,10,0) + x(16,11,0) + x(16,12,0) + x(16,13,0)
                    + x(16,14,0) + x(16,15,0) + x(16,17,0) + x(16,18,0)
                    + x(16,19,0) + x(16,20,0) + x(16,22,0) - x(17,16,0)
                    - x(18,16,0) - x(19,16,0) - x(20,16,0)  = 0
 Constraint4_17_0:  - x(9,17,0) - x(10,17,0) - x(11,17,0) - x(12,17,0)
                    - x(13,17,0) - x(14,17,0) - x(15,17,0) - x(16,17,0)
                    + x(17,9,0) + x(17,10,0) + x(17,11,0) + x(17,12,0)
                    + x(17,13,0) + x(17,14,0) + x(17,15,0) + x(17,16,0)
                    + x(17,18,0) + x(17,19,0) + x(17,20,0) + x(17,22,0)
                    - x(18,17,0) - x(19,17,0) - x(20,17,0)  = 0
 Constraint4_18_0:  - x(9,18,0) - x(10,18,0) - x(11,18,0) - x(12,18,0)
                    - x(13,18,0) - x(14,18,0) - x(15,18,0) - x(16,18,0)
                    - x(17,18,0) + x(18,9,0) + x(18,10,0) + x(18,11,0)
                    + x(18,12,0) + x(18,13,0) + x(18,14,0) + x(18,15,0)
                    + x(18,16,0) + x(18,17,0) + x(18,19,0) + x(18,20,0)
                    + x(18,22,0) - x(19,18,0) - x(20,18,0)  = 0
 Constraint4_19_0:  - x(9,19,0) - x(10,19,0) - x(11,19,0) - x(12,19,0)
                    - x(13,19,0) - x(14,19,0) - x(15,19,0) - x(16,19,0)
                    - x(17,19,0) - x(18,19,0) + x(19,9,0) + x(19,10,0)
                    + x(19,11,0) + x(19,12,0) + x(19,13,0) + x(19,14,0)
                    + x(19,15,0) + x(19,16,0) + x(19,17,0) + x(19,18,0)
                    + x(19,20,0) + x(19,22,0) - x(20,19,0)  = 0
 Constraint4_20_0:  - x(9,20,0) - x(10,20,0) - x(11,20,0) - x(12,20,0)
                    - x(13,20,0) - x(14,20,0) - x(15,20,0) - x(16,20,0)
                    - x(17,20,0) - x(18,20,0) - x(19,20,0) + x(20,9,0)
                    + x(20,10,0) + x(20,11,0) + x(20,12,0) + x(20,13,0)
                    + x(20,14,0) + x(20,15,0) + x(20,16,0) + x(20,17,0)
                    + x(20,18,0) + x(20,19,0) + x(20,22,0)  = 0
 Constraint5_0:     x(21,9,0) + x(21,10,0) + x(21,11,0) + x(21,12,0)
                    + x(21,13,0) + x(21,14,0)  = 1
 Constraint6_0:     x(15,22,0) + x(16,22,0) + x(17,22,0) + x(18,22,0)
                    + x(19,22,0) + x(20,22,0)  = 1
 Constraint7_0:     - 48 y(0) + b(0) <= 0
 Constraint7_1:     - 48 y(1) + b(1) <= 0
 Constraint7_2:     - 48 y(2) + b(2) <= 0
 Constraint7_3:     - 48 y(3) + b(3) <= 0
 Constraint7_4:     - 48 y(4) + b(4) <= 0
 Constraint7_5:     - 48 y(5) + b(5) <= 0
 Constraint7_6:     - 48 y(6) + b(6) <= 0
 Constraint7_7:     - 48 y(7) + b(7) <= 0
 Constraint7_8:     - 48 y(8) + b(8) <= 0
 Constraint7_9:     - 48 y(9) + b(9) <= 0
 Constraint7_10:    - 48 y(10) + b(10) <= 0
 Constraint7_11:    - 48 y(11) + b(11) <= 0
 Constraint7_12:    - 48 y(12) + b(12) <= 0
 Constraint7_13:    - 48 y(13) + b(13) <= 0
 Constraint7_14:    - 48 y(14) + b(14) <= 0
 Constraint7_15:    - 48 y(15) + b(15) <= 0
 Constraint7_16:    - 48 y(16) + b(16) <= 0
 Constraint7_17:    - 48 y(17) + b(17) <= 0
 Constraint7_18:    - 48 y(18) + b(18) <= 0
 Constraint7_19:    - 48 y(19) + b(19) <= 0
 Constraint7_20:    - 48 y(20) + b(20) <= 0
 Constraint8_9:     b(9) - b(15) <= 0
 Constraint8_10:    b(10) - b(16) <= 0
 Constraint8_11:    b(11) - b(17) <= 0
 Constraint8_12:    b(12) - b(18) <= 0
 Constraint8_13:    b(13) - b(19) <= 0
 Constraint8_14:    b(14) - b(20) <= 0
 Constraint9_9_9:   48 x(9,9,0) <= 47.9166666666667
 Constraint9_9_10:  48 x(9,10,0) + b(9) - b(10) <= 47.5873983739837
 Constraint9_9_11:  48 x(9,11,0) + b(9) - b(11) <= 47.2142276422764
 Constraint9_9_12:  48 x(9,12,0) + b(9) - b(12) <= 47.6556910569106
 Constraint9_9_13:  48 x(9,13,0) + b(9) - b(13) <= 47.3766666666667
 Constraint9_9_14:  48 x(9,14,0) + b(9) - b(14) <= 47.509837398374
 Constraint9_9_15:  48 x(9,15,0) + b(9) - b(15) <= 47.6937398373984
 Constraint9_9_16:  48 x(9,16,0) + b(9) - b(16) <= 47.6337398373984
 Constraint9_9_17:  48 x(9,17,0) + b(9) - b(17) <= 47.2273983739837
 Constraint9_9_18:  48 x(9,18,0) + b(9) - b(18) <= 47.3952032520325
 Constraint9_9_19:  48 x(9,19,0) + b(9) - b(19) <= 47.3449593495935
 Constraint9_9_20:  48 x(9,20,0) + b(9) - b(20) <= 47.6654471544715
 Constraint9_10_9:  48 x(10,9,0) - b(9) + b(10) <= 47.5873983739837
 Constraint9_10_10: 48 x(10,10,0) <= 47.9166666666667
 Constraint9_10_11: 48 x(10,11,0) + b(10) - b(11) <= 47.3620325203252
 Constraint9_10_12: 48 x(10,12,0) + b(10) - b(12) <= 47.5610569105691
 Constraint9_10_13: 48 x(10,13,0) + b(10) - b(13) <= 47.1937398373984
 Constraint9_10_14: 48 x(10,14,0) + b(10) - b(14) <= 47.7410569105691
 Constraint9_10_15: 48 x(10,15,0) + b(10) - b(15) <= 47.479593495935
 Constraint9_10_16: 48 x(10,16,0) + b(10) - b(16) <= 47.5791056910569
 Constraint9_10_17: 48 x(10,17,0) + b(10) - b(17) <= 47.4508130081301
 Constraint9_10_18: 48 x(10,18,0) + b(10) - b(18) <= 47.3439837398374
 Constraint9_10_19: 48 x(10,19,0) + b(10) - b(19) <= 47.2869105691057
 Constraint9_10_20: 48 x(10,20,0) + b(10) - b(20) <= 47.5713008130081
 Constraint9_11_9:  48 x(11,9,0) - b(9) + b(11) <= 47.2142276422764
 Constraint9_11_10: 48 x(11,10,0) - b(10) + b(11) <= 47.3620325203252
 Constraint9_11_11: 48 x(11,11,0) <= 47.9166666666667
 Constraint9_11_12: 48 x(11,12,0) + b(11) - b(12) <= 47.1532520325203
 Constraint9_11_13: 48 x(11,13,0) + b(11) - b(13) <= 46.9332520325203
 Constraint9_11_14: 48 x(11,14,0) + b(11) - b(14) <= 47.5039837398374
 Constraint9_11_15: 48 x(11,15,0) + b(11) - b(15) <= 47.2034959349593
 Constraint9_11_16: 48 x(11,16,0) + b(11) - b(16) <= 47.1839837398374
 Constraint9_11_17: 48 x(11,17,0) + b(11) - b(17) <= 47.7064227642276
 Constraint9_11_18: 48 x(11,18,0) + b(11) - b(18) <= 47.1464227642276
 Constraint9_11_19: 48 x(11,19,0) + b(11) - b(19) <= 47.0625203252033
 Constraint9_11_20: 48 x(11,20,0) + b(11) - b(20) <= 47.1634959349594
 Constraint9_12_9:  48 x(12,9,0) - b(9) + b(12) <= 47.6556910569106
 Constraint9_12_10: 48 x(12,10,0) - b(10) + b(12) <= 47.5610569105691
 Constraint9_12_11: 48 x(12,11,0) - b(11) + b(12) <= 47.1532520325203
 Constraint9_12_12: 48 x(12,12,0) <= 47.9166666666667
 Constraint9_12_13: 48 x(12,13,0) + b(12) - b(13) <= 47.4356910569106
 Constraint9_12_14: 48 x(12,14,0) + b(12) - b(14) <= 47.5059349593496
 Constraint9_12_15: 48 x(12,15,0) + b(12) - b(15) <= 47.6064227642276
 Constraint9_12_16: 48 x(12,16,0) + b(12) - b(16) <= 47.8410569105691
 Constraint9_12_17: 48 x(12,17,0) + b(12) - b(17) <= 47.2356910569106
 Constraint9_12_18: 48 x(12,18,0) + b(12) - b(18) <= 47.5444715447154
 Constraint9_12_19: 48 x(12,19,0) + b(12) - b(19) <= 47.540081300813
 Constraint9_12_20: 48 x(12,20,0) + b(12) - b(20) <= 47.7805691056911
 Constraint9_13_9:  48 x(13,9,0) - b(9) + b(13) <= 47.3766666666667
 Constraint9_13_10: 48 x(13,10,0) - b(10) + b(13) <= 47.1937398373984
 Constraint9_13_11: 48 x(13,11,0) - b(11) + b(13) <= 46.9332520325203
 Constraint9_13_12: 48 x(13,12,0) - b(12) + b(13) <= 47.4356910569106
 Constraint9_13_13: 48 x(13,13,0) <= 47.9166666666667
 Constraint9_13_14: 48 x(13,14,0) + b(13) - b(14) <= 47.240081300813
 Constraint9_13_15: 48 x(13,15,0) + b(13) - b(15) <= 47.4722764227642
 Constraint9_13_16: 48 x(13,16,0) + b(13) - b(16) <= 47.3966666666667
 Constraint9_13_17: 48 x(13,17,0) + b(13) - b(17) <= 47.0156910569106
 Constraint9_13_18: 48 x(13,18,0) + b(13) - b(18) <= 47.4615447154472
 Constraint9_13_19: 48 x(13,19,0) + b(13) - b(19) <= 47.7176422764228
 Constraint9_13_20: 48 x(13,20,0) + b(13) - b(20) <= 47.4771544715447
 Constraint9_14_9:  48 x(14,9,0) - b(9) + b(14) <= 47.509837398374
 Constraint9_14_10: 48 x(14,10,0) - b(10) + b(14) <= 47.7410569105691
 Constraint9_14_11: 48 x(14,11,0) - b(11) + b(14) <= 47.5039837398374
 Constraint9_14_12: 48 x(14,12,0) - b(12) + b(14) <= 47.5059349593496
 Constraint9_14_13: 48 x(14,13,0) - b(13) + b(14) <= 47.240081300813
 Constraint9_14_14: 48 x(14,14,0) <= 47.9166666666667
 Constraint9_14_15: 48 x(14,15,0) + b(14) - b(15) <= 47.3654471544715
 Constraint9_14_16: 48 x(14,16,0) + b(14) - b(16) <= 47.5630081300813
 Constraint9_14_17: 48 x(14,17,0) + b(14) - b(17) <= 47.5864227642276
 Constraint9_14_18: 48 x(14,18,0) + b(14) - b(18) <= 47.4947154471545
 Constraint9_14_19: 48 x(14,19,0) + b(14) - b(19) <= 47.3239837398374
 Constraint9_14_20: 48 x(14,20,0) + b(14) - b(20) <= 47.4981300813008
 Constraint9_15_9:  48 x(15,9,0) - b(9) + b(15) <= 47.6937398373984
 Constraint9_15_10: 48 x(15,10,0) - b(10) + b(15) <= 47.479593495935
 Constraint9_15_11: 48 x(15,11,0) - b(11) + b(15) <= 47.2034959349593
 Constraint9_15_12: 48 x(15,12,0) - b(12) + b(15) <= 47.6064227642276
 Constraint9_15_13: 48 x(15,13,0) - b(13) + b(15) <= 47.4722764227642
 Constraint9_15_14: 48 x(15,14,0) - b(14) + b(15) <= 47.3654471544715
 Constraint9_15_15: 48 x(15,15,0) <= 47.9166666666667
 Constraint9_15_16: 48 x(15,16,0) + b(15) - b(16) <= 47.5605691056911
 Constraint9_15_17: 48 x(15,17,0) + b(15) - b(17) <= 47.1137398373984
 Constraint9_15_18: 48 x(15,18,0) + b(15) - b(18) <= 47.4942276422764
 Constraint9_15_19: 48 x(15,19,0) + b(15) - b(19) <= 47.4439837398374
 Constraint9_15_20: 48 x(15,20,0) + b(15) - b(20) <= 47.6225203252033
 Constraint9_15_22: 48 x(15,22,0) + b(15) - b(22) <= 47.9166666666667
 Constraint9_16_9:  48 x(16,9,0) - b(9) + b(16) <= 47.6337398373984
 Constraint9_16_10: 48 x(16,10,0) - b(10) + b(16) <= 47.5791056910569
 Constraint9_16_11: 48 x(16,11,0) - b(11) + b(16) <= 47.1839837398374
 Constraint9_16_12: 48 x(16,12,0) - b(12) + b(16) <= 47.8410569105691
 Constraint9_16_13: 48 x(16,13,0) - b(13) + b(16) <= 47.3966666666667
 Constraint9_16_14: 48 x(16,14,0) - b(14) + b(16) <= 47.5630081300813
 Constraint9_16_15: 48 x(16,15,0) - b(15) + b(16) <= 47.5605691056911
 Constraint9_16_16: 48 x(16,16,0) <= 47.9166666666667
 Constraint9_16_17: 48 x(16,17,0) + b(16) - b(17) <= 47.2732520325203
 Constraint9_16_18: 48 x(16,18,0) + b(16) - b(18) <= 47.5044715447155
 Constraint9_16_19: 48 x(16,19,0) + b(16) - b(19) <= 47.4883739837398
 Constraint9_16_20: 48 x(16,20,0) + b(16) - b(20) <= 47.7561788617886
 Constraint9_16_22: 48 x(16,22,0) + b(16) - b(22) <= 47.9166666666667
 Constraint9_17_9:  48 x(17,9,0) - b(9) + b(17) <= 47.2273983739837
 Constraint9_17_10: 48 x(17,10,0) - b(10) + b(17) <= 47.4508130081301
 Constraint9_17_11: 48 x(17,11,0) - b(11) + b(17) <= 47.7064227642276
 Constraint9_17_12: 48 x(17,12,0) - b(12) + b(17) <= 47.2356910569106
 Constraint9_17_13: 48 x(17,13,0) - b(13) + b(17) <= 47.0156910569106
 Constraint9_17_14: 48 x(17,14,0) - b(14) + b(17) <= 47.5864227642276
 Constraint9_17_15: 48 x(17,15,0) - b(15) + b(17) <= 47.1137398373984
 Constraint9_17_16: 48 x(17,16,0) - b(16) + b(17) <= 47.2732520325203
 Constraint9_17_17: 48 x(17,17,0) <= 47.9166666666667
 Constraint9_17_18: 48 x(17,18,0) + b(17) - b(18) <= 47.2288617886179
 Constraint9_17_19: 48 x(17,19,0) + b(17) - b(19) <= 47.1449593495935
 Constraint9_17_20: 48 x(17,20,0) + b(17) - b(20) <= 47.2459349593496
 Constraint9_17_22: 48 x(17,22,0) + b(17) - b(22) <= 47.9166666666667
 Constraint9_18_9:  48 x(18,9,0) - b(9) + b(18) <= 47.3952032520325
 Constraint9_18_10: 48 x(18,10,0) - b(10) + b(18) <= 47.3439837398374
 Constraint9_18_11: 48 x(18,11,0) - b(11) + b(18) <= 47.1464227642276
 Constraint9_18_12: 48 x(18,12,0) - b(12) + b(18) <= 47.5444715447154
 Constraint9_18_13: 48 x(18,13,0) - b(13) + b(18) <= 47.4615447154472
 Constraint9_18_14: 48 x(18,14,0) - b(14) + b(18) <= 47.4947154471545
 Constraint9_18_15: 48 x(18,15,0) - b(15) + b(18) <= 47.4942276422764
 Constraint9_18_16: 48 x(18,16,0) - b(16) + b(18) <= 47.5044715447155
 Constraint9_18_17: 48 x(18,17,0) - b(17) + b(18) <= 47.2288617886179
 Constraint9_18_18: 48 x(18,18,0) <= 47.9166666666667
 Constraint9_18_19: 48 x(18,19,0) + b(18) - b(19) <= 47.5908130081301
 Constraint9_18_20: 48 x(18,20,0) + b(18) - b(20) <= 47.6722764227642
 Constraint9_18_22: 48 x(18,22,0) + b(18) - b(22) <= 47.9166666666667
 Constraint9_19_9:  48 x(19,9,0) - b(9) + b(19) <= 47.3449593495935
 Constraint9_19_10: 48 x(19,10,0) - b(10) + b(19) <= 47.2869105691057
 Constraint9_19_11: 48 x(19,11,0) - b(11) + b(19) <= 47.0625203252033
 Constraint9_19_12: 48 x(19,12,0) - b(12) + b(19) <= 47.540081300813
 Constraint9_19_13: 48 x(19,13,0) - b(13) + b(19) <= 47.7176422764228
 Constraint9_19_14: 48 x(19,14,0) - b(14) + b(19) <= 47.3239837398374
 Constraint9_19_15: 48 x(19,15,0) - b(15) + b(19) <= 47.4439837398374
 Constraint9_19_16: 48 x(19,16,0) - b(16) + b(19) <= 47.4883739837398
 Constraint9_19_17: 48 x(19,17,0) - b(17) + b(19) <= 47.1449593495935
 Constraint9_19_18: 48 x(19,18,0) - b(18) + b(19) <= 47.5908130081301
 Constraint9_19_19: 48 x(19,19,0) <= 47.9166666666667
 Constraint9_19_20: 48 x(19,20,0) + b(19) - b(20) <= 47.5386178861789
 Constraint9_19_22: 48 x(19,22,0) + b(19) - b(22) <= 47.9166666666667
 Constraint9_20_9:  48 x(20,9,0) - b(9) + b(20) <= 47.6654471544715
 Constraint9_20_10: 48 x(20,10,0) - b(10) + b(20) <= 47.5713008130081
 Constraint9_20_11: 48 x(20,11,0) - b(11) + b(20) <= 47.1634959349594
 Constraint9_20_12: 48 x(20,12,0) - b(12) + b(20) <= 47.7805691056911
 Constraint9_20_13: 48 x(20,13,0) - b(13) + b(20) <= 47.4771544715447
 Constraint9_20_14: 48 x(20,14,0) - b(14) + b(20) <= 47.4981300813008
 Constraint9_20_15: 48 x(20,15,0) - b(15) + b(20) <= 47.6225203252033
 Constraint9_20_16: 48 x(20,16,0) - b(16) + b(20) <= 47.7561788617886
 Constraint9_20_17: 48 x(20,17,0) - b(17) + b(20) <= 47.2459349593496
 Constraint9_20_18: 48 x(20,18,0) - b(18) + b(20) <= 47.6722764227642
 Constraint9_20_19: 48 x(20,19,0) - b(19) + b(20) <= 47.5386178861789
 Constraint9_20_20: 48 x(20,20,0) <= 47.9166666666667
 Constraint9_20_22: 48 x(20,22,0) + b(20) - b(22) <= 47.9166666666667
 Constraint9_21_9:  48 x(21,9,0) - b(9) + b(21) <= 47.4956097560976
 Constraint9_21_10: 48 x(21,10,0) - b(10) + b(21) <= 47.4678048780488
 Constraint9_21_11: 48 x(21,11,0) - b(11) + b(21) <= 47.189756097561
 Constraint9_21_12: 48 x(21,12,0) - b(12) + b(21) <= 47.6760975609756
 Constraint9_21_13: 48 x(21,13,0) - b(13) + b(21) <= 47.7014634146341
 Constraint9_21_14: 48 x(21,14,0) - b(14) + b(21) <= 47.5370731707317
 Constraint11_0:    b(0) <= 22.2833333333333
 Constraint12_0:    b(0) >= 22.2833333333333
 Constraint11_1:    b(1) <= 21.1666666666667
 Constraint12_1:    b(1) >= 21.1666666666667
 Constraint11_2:    b(2) <= 10.9333333333333
 Constraint12_2:    b(2) >= 10.9333333333333
 Constraint11_3:    b(3) <= 8.98333333333333
 Constraint12_3:    b(3) >= 8.98333333333333
 Constraint11_4:    b(4) <= 1.11666666666667
 Constraint12_4:    b(4) >= 1.11666666666667
 Constraint11_5:    b(5) <= 8.83333333333333
 Constraint12_5:    b(5) >= 8.83333333333333
 Constraint11_6:    b(6) <= 6.96666666666667
 Constraint12_6:    b(6) >= 6.96666666666667
 Constraint11_7:    b(7) <= 8.56666666666667
 Constraint12_7:    b(7) >= 8.56666666666667
 Constraint11_8:    b(8) <= 0.716666666666667
 Constraint12_8:    b(8) >= 0.716666666666667
 Constraint11_9:    b(9) <= 24
 Constraint12_9:    b(9) >= 0
 Constraint11_10:   b(10) <= 24
 Constraint12_10:   b(10) >= 0
 Constraint11_11:   b(11) <= 24
 Constraint12_11:   b(11) >= 0
 Constraint11_12:   b(12) <= 24
 Constraint12_12:   b(12) >= 0
 Constraint11_13:   b(13) <= 24
 Constraint12_13:   b(13) >= 0
 Constraint11_14:   b(14) <= 24
 Constraint12_14:   b(14) >= 0
 Constraint11_15:   b(15) <= 24
 Constraint12_15:   b(15) >= 0
 Constraint11_16:   b(16) <= 24
 Constraint12_16:   b(16) >= 0
 Constraint11_17:   b(17) <= 24
 Constraint12_17:   b(17) >= 0
 Constraint11_18:   b(18) <= 24
 Constraint12_18:   b(18) >= 0
 Constraint11_19:   b(19) <= 24
 Constraint12_19:   b(19) >= 0
 Constraint11_20:   b(20) <= 24
 Constraint12_20:   b(20) >= 0
 Constraint11_21:   b(21) <= 24
 Constraint12_21:   b(21) >= 0
 Constraint11_22:   b(22) <= 24
 Constraint12_22:   b(22) >= 0
 Constraint13_21:   - b(21) + b(22) <= 8
Bounds
 0 <= x(9,9,0) <= 1
 0 <= x(9,10,0) <= 1
 0 <= x(9,11,0) <= 1
 0 <= x(9,12,0) <= 1
 0 <= x(9,13,0) <= 1
 0 <= x(9,14,0) <= 1
 0 <= x(9,15,0) <= 1
 0 <= x(9,16,0) <= 1
 0 <= x(9,17,0) <= 1
 0 <= x(9,18,0) <= 1
 0 <= x(9,19,0) <= 1
 0 <= x(9,20,0) <= 1
 0 <= x(10,9,0) <= 1
 0 <= x(10,10,0) <= 1
 0 <= x(10,11,0) <= 1
 0 <= x(10,12,0) <= 1
 0 <= x(10,13,0) <= 1
 0 <= x(10,14,0) <= 1
 0 <= x(10,15,0) <= 1
 0 <= x(10,16,0) <= 1
 0 <= x(10,17,0) <= 1
 0 <= x(10,18,0) <= 1
 0 <= x(10,19,0) <= 1
 0 <= x(10,20,0) <= 1
 0 <= x(11,9,0) <= 1
 0 <= x(11,10,0) <= 1
 0 <= x(11,11,0) <= 1
 0 <= x(11,12,0) <= 1
 0 <= x(11,13,0) <= 1
 0 <= x(11,14,0) <= 1
 0 <= x(11,15,0) <= 1
 0 <= x(11,16,0) <= 1
 0 <= x(11,17,0) <= 1
 0 <= x(11,18,0) <= 1
 0 <= x(11,19,0) <= 1
 0 <= x(11,20,0) <= 1
 0 <= x(12,9,0) <= 1
 0 <= x(12,10,0) <= 1
 0 <= x(12,11,0) <= 1
 0 <= x(12,12,0) <= 1
 0 <= x(12,13,0) <= 1
 0 <= x(12,14,0) <= 1
 0 <= x(12,15,0) <= 1
 0 <= x(12,16,0) <= 1
 0 <= x(12,17,0) <= 1
 0 <= x(12,18,0) <= 1
 0 <= x(12,19,0) <= 1
 0 <= x(12,20,0) <= 1
 0 <= x(13,9,0) <= 1
 0 <= x(13,10,0) <= 1
 0 <= x(13,11,0) <= 1
 0 <= x(13,12,0) <= 1
 0 <= x(13,13,0) <= 1
 0 <= x(13,14,0) <= 1
 0 <= x(13,15,0) <= 1
 0 <= x(13,16,0) <= 1
 0 <= x(13,17,0) <= 1
 0 <= x(13,18,0) <= 1
 0 <= x(13,19,0) <= 1
 0 <= x(13,20,0) <= 1
 0 <= x(14,9,0) <= 1
 0 <= x(14,10,0) <= 1
 0 <= x(14,11,0) <= 1
 0 <= x(14,12,0) <= 1
 0 <= x(14,13,0) <= 1
 0 <= x(14,14,0) <= 1
 0 <= x(14,15,0) <= 1
 0 <= x(14,16,0) <= 1
 0 <= x(14,17,0) <= 1
 0 <= x(14,18,0) <= 1
 0 <= x(14,19,0) <= 1
 0 <= x(14,20,0) <= 1
 0 <= x(15,9,0) <= 1
 0 <= x(15,10,0) <= 1
 0 <= x(15,11,0) <= 1
 0 <= x(15,12,0) <= 1
 0 <= x(15,13,0) <= 1
 0 <= x(15,14,0) <= 1
 0 <= x(15,15,0) <= 1
 0 <= x(15,16,0) <= 1
 0 <= x(15,17,0) <= 1
 0 <= x(15,18,0) <= 1
 0 <= x(15,19,0) <= 1
 0 <= x(15,20,0) <= 1
 0 <= x(15,22,0) <= 1
 0 <= x(16,9,0) <= 1
 0 <= x(16,10,0) <= 1
 0 <= x(16,11,0) <= 1
 0 <= x(16,12,0) <= 1
 0 <= x(16,13,0) <= 1
 0 <= x(16,14,0) <= 1
 0 <= x(16,15,0) <= 1
 0 <= x(16,16,0) <= 1
 0 <= x(16,17,0) <= 1
 0 <= x(16,18,0) <= 1
 0 <= x(16,19,0) <= 1
 0 <= x(16,20,0) <= 1
 0 <= x(16,22,0) <= 1
 0 <= x(17,9,0) <= 1
 0 <= x(17,10,0) <= 1
 0 <= x(17,11,0) <= 1
 0 <= x(17,12,0) <= 1
 0 <= x(17,13,0) <= 1
 0 <= x(17,14,0) <= 1
 0 <= x(17,15,0) <= 1
 0 <= x(17,16,0) <= 1
 0 <= x(17,17,0) <= 1
 0 <= x(17,18,0) <= 1
 0 <= x(17,19,0) <= 1
 0 <= x(17,20,0) <= 1
 0 <= x(17,22,0) <= 1
 0 <= x(18,9,0) <= 1
 0 <= x(18,10,0) <= 1
 0 <= x(18,11,0) <= 1
 0 <= x(18,12,0) <= 1
 0 <= x(18,13,0) <= 1
 0 <= x(18,14,0) <= 1
 0 <= x(18,15,0) <= 1
 0 <= x(18,16,0) <= 1
 0 <= x(18,17,0) <= 1
 0 <= x(18,18,0) <= 1
 0 <= x(18,19,0) <= 1
 0 <= x(18,20,0) <= 1
 0 <= x(18,22,0) <= 1
 0 <= x(19,9,0) <= 1
 0 <= x(19,10,0) <= 1
 0 <= x(19,11,0) <= 1
 0 <= x(19,12,0) <= 1
 0 <= x(19,13,0) <= 1
 0 <= x(19,14,0) <= 1
 0 <= x(19,15,0) <= 1
 0 <= x(19,16,0) <= 1
 0 <= x(19,17,0) <= 1
 0 <= x(19,18,0) <= 1
 0 <= x(19,19,0) <= 1
 0 <= x(19,20,0) <= 1
 0 <= x(19,22,0) <= 1
 0 <= x(20,9,0) <= 1
 0 <= x(20,10,0) <= 1
 0 <= x(20,11,0) <= 1
 0 <= x(20,12,0) <= 1
 0 <= x(20,13,0) <= 1
 0 <= x(20,14,0) <= 1
 0 <= x(20,15,0) <= 1
 0 <= x(20,16,0) <= 1
 0 <= x(20,17,0) <= 1
 0 <= x(20,18,0) <= 1
 0 <= x(20,19,0) <= 1
 0 <= x(20,20,0) <= 1
 0 <= x(20,22,0) <= 1
 0 <= x(21,9,0) <= 1
 0 <= x(21,10,0) <= 1
 0 <= x(21,11,0) <= 1
 0 <= x(21,12,0) <= 1
 0 <= x(21,13,0) <= 1
 0 <= x(21,14,0) <= 1
 0 <= y(0) <= 1
 0 <= y(1) <= 1
 0 <= y(2) <= 1
 0 <= y(3) <= 1
 0 <= y(4) <= 1
 0 <= y(5) <= 1
 0 <= y(6) <= 1
 0 <= y(7) <= 1
 0 <= y(8) <= 1
 0 <= y(9) <= 1
 0 <= y(10) <= 1
 0 <= y(11) <= 1
 0 <= y(12) <= 1
 0 <= y(13) <= 1
 0 <= y(14) <= 1
 0 <= y(15) <= 1
 0 <= y(16) <= 1
 0 <= y(17) <= 1
 0 <= y(18) <= 1
 0 <= y(19) <= 1
 0 <= y(20) <= 1
 0 <= y(21) <= 1
 0 <= y(22) <= 1
 0 <= b(0) <= 24
 0 <= b(1) <= 24
 0 <= b(2) <= 24
 0 <= b(3) <= 24
 0 <= b(4) <= 24
 0 <= b(5) <= 24
 0 <= b(6) <= 24
 0 <= b(7) <= 24
 0 <= b(8) <= 24
 0 <= b(9) <= 24
 0 <= b(10) <= 24
 0 <= b(11) <= 24
 0 <= b(12) <= 24
 0 <= b(13) <= 24
 0 <= b(14) <= 24
 0 <= b(15) <= 24
 0 <= b(16) <= 24
 0 <= b(17) <= 24
 0 <= b(18) <= 24
 0 <= b(19) <= 24
 0 <= b(20) <= 24
 0 <= b(21) <= 24
 0 <= b(22) <= 24
Binaries
 x(9,9,0)  x(9,10,0)  x(9,11,0)  x(9,12,0)  x(9,13,0)  x(9,14,0)  x(9,15,0) 
 x(9,16,0)  x(9,17,0)  x(9,18,0)  x(9,19,0)  x(9,20,0)  x(10,9,0)  x(10,10,0) 
 x(10,11,0)  x(10,12,0)  x(10,13,0)  x(10,14,0)  x(10,15,0)  x(10,16,0) 
 x(10,17,0)  x(10,18,0)  x(10,19,0)  x(10,20,0)  x(11,9,0)  x(11,10,0) 
 x(11,11,0)  x(11,12,0)  x(11,13,0)  x(11,14,0)  x(11,15,0)  x(11,16,0) 
 x(11,17,0)  x(11,18,0)  x(11,19,0)  x(11,20,0)  x(12,9,0)  x(12,10,0) 
 x(12,11,0)  x(12,12,0)  x(12,13,0)  x(12,14,0)  x(12,15,0)  x(12,16,0) 
 x(12,17,0)  x(12,18,0)  x(12,19,0)  x(12,20,0)  x(13,9,0)  x(13,10,0) 
 x(13,11,0)  x(13,12,0)  x(13,13,0)  x(13,14,0)  x(13,15,0)  x(13,16,0) 
 x(13,17,0)  x(13,18,0)  x(13,19,0)  x(13,20,0)  x(14,9,0)  x(14,10,0) 
 x(14,11,0)  x(14,12,0)  x(14,13,0)  x(14,14,0)  x(14,15,0)  x(14,16,0) 
 x(14,17,0)  x(14,18,0)  x(14,19,0)  x(14,20,0)  x(15,9,0)  x(15,10,0) 
 x(15,11,0)  x(15,12,0)  x(15,13,0)  x(15,14,0)  x(15,15,0)  x(15,16,0) 
 x(15,17,0)  x(15,18,0)  x(15,19,0)  x(15,20,0)  x(15,22,0)  x(16,9,0) 
 x(16,10,0)  x(16,11,0)  x(16,12,0)  x(16,13,0)  x(16,14,0)  x(16,15,0) 
 x(16,16,0)  x(16,17,0)  x(16,18,0)  x(16,19,0)  x(16,20,0)  x(16,22,0) 
 x(17,9,0)  x(17,10,0)  x(17,11,0)  x(17,12,0)  x(17,13,0)  x(17,14,0) 
 x(17,15,0)  x(17,16,0)  x(17,17,0)  x(17,18,0)  x(17,19,0)  x(17,20,0) 
 x(17,22,0)  x(18,9,0)  x(18,10,0)  x(18,11,0)  x(18,12,0)  x(18,13,0) 
 x(18,14,0)  x(18,15,0)  x(18,16,0)  x(18,17,0)  x(18,18,0)  x(18,19,0) 
 x(18,20,0)  x(18,22,0)  x(19,9,0)  x(19,10,0)  x(19,11,0)  x(19,12,0) 
 x(19,13,0)  x(19,14,0)  x(19,15,0)  x(19,16,0)  x(19,17,0)  x(19,18,0) 
 x(19,19,0)  x(19,20,0)  x(19,22,0)  x(20,9,0)  x(20,10,0)  x(20,11,0) 
 x(20,12,0)  x(20,13,0)  x(20,14,0)  x(20,15,0)  x(20,16,0)  x(20,17,0) 
 x(20,18,0)  x(20,19,0)  x(20,20,0)  x(20,22,0)  x(21,9,0)  x(21,10,0) 
 x(21,11,0)  x(21,12,0)  x(21,13,0)  x(21,14,0)  y(0)  y(1)  y(2)  y(3)  y(4) 
 y(5)  y(6)  y(7)  y(8)  y(9)  y(10)  y(11)  y(12)  y(13)  y(14)  y(15)  y(16) 
 y(17)  y(18)  y(19)  y(20)  y(21)  y(22) 
End
